NAME : local_9
TYPE : ATSP
DIMENSION : 7
EDGE_WEIGHT_TYPE : EXPLICIT
EDGE_WEIGHT_FORMAT : FULL_MATRIX
EDGE_WEIGHT_SECTION
0 344 454 10000000 10000000 10000000 683 
0 0 282 10000000 10000000 10000000 465 
0 282 0 10000000 10000000 10000000 269 
0 10000000 10000000 0 484 641 10000000 
0 10000000 10000000 484 0 532 10000000 
0 10000000 10000000 641 532 0 10000000 
0 10000000 10000000 10000000 10000000 10000000 0 
EOF